c Reduced graph for r19 generated by Cyril Grelier
p edge 185 1803
e 1 4
e 1 6
e 1 10
e 1 14
e 1 32
e 1 37
e 1 46
e 1 59
e 1 72
e 1 75
e 1 84
e 1 93
e 1 119
e 1 124
e 1 129
e 1 133
e 1 144
e 1 150
e 1 161
e 1 163
e 1 174
e 1 179
e 2 3
e 2 9
e 2 11
e 2 13
e 2 29
e 2 40
e 2 78
e 2 93
e 2 106
e 2 148
e 2 149
e 2 151
e 2 157
e 2 163
e 2 168
e 2 181
e 3 5
e 3 9
e 3 11
e 3 29
e 3 33
e 3 39
e 3 41
e 3 47
e 3 92
e 3 103
e 3 106
e 3 116
e 3 132
e 3 141
e 3 150
e 3 151
e 3 157
e 3 163
e 3 168
e 3 181
e 4 6
e 4 11
e 4 14
e 4 23
e 4 32
e 4 44
e 4 72
e 4 93
e 4 119
e 4 124
e 4 144
e 4 147
e 4 150
e 4 161
e 4 182
e 5 15
e 5 17
e 5 19
e 5 33
e 5 39
e 5 41
e 5 47
e 5 67
e 5 71
e 5 92
e 5 99
e 5 103
e 5 116
e 5 120
e 5 132
e 5 141
e 5 148
e 5 150
e 5 160
e 6 14
e 6 27
e 6 29
e 6 32
e 6 42
e 6 54
e 6 72
e 6 80
e 6 90
e 6 93
e 6 97
e 6 104
e 6 114
e 6 119
e 6 124
e 6 130
e 6 144
e 6 150
e 6 161
e 7 13
e 7 21
e 7 24
e 7 28
e 7 31
e 7 35
e 7 60
e 7 71
e 7 80
e 7 81
e 7 94
e 7 100
e 7 117
e 7 127
e 7 131
e 7 139
e 7 146
e 7 153
e 7 167
e 7 169
e 7 171
e 7 184
e 8 18
e 8 20
e 8 22
e 8 57
e 8 61
e 8 64
e 8 73
e 8 75
e 8 83
e 8 97
e 8 103
e 8 109
e 8 113
e 8 119
e 8 121
e 8 128
e 8 143
e 8 154
e 8 162
e 8 165
e 8 171
e 8 180
e 9 11
e 9 14
e 9 29
e 9 68
e 9 70
e 9 95
e 9 106
e 9 135
e 9 151
e 9 152
e 9 157
e 9 163
e 9 165
e 9 166
e 9 168
e 9 181
e 10 20
e 10 37
e 10 44
e 10 46
e 10 50
e 10 59
e 10 75
e 10 84
e 10 86
e 10 108
e 10 129
e 10 133
e 10 163
e 10 174
e 10 175
e 10 179
e 11 23
e 11 29
e 11 44
e 11 106
e 11 147
e 11 151
e 11 157
e 11 163
e 11 168
e 11 181
e 11 182
e 12 16
e 12 26
e 12 28
e 12 30
e 12 43
e 12 53
e 12 54
e 12 55
e 12 60
e 12 61
e 12 72
e 12 77
e 12 87
e 12 89
e 12 95
e 12 110
e 12 111
e 12 157
e 12 158
e 12 159
e 12 162
e 12 176
e 12 179
e 13 24
e 13 40
e 13 60
e 13 78
e 13 80
e 13 93
e 13 94
e 13 117
e 13 131
e 13 139
e 13 148
e 13 149
e 13 171
e 13 184
e 14 32
e 14 68
e 14 70
e 14 72
e 14 93
e 14 95
e 14 119
e 14 124
e 14 135
e 14 144
e 14 150
e 14 152
e 14 161
e 14 165
e 14 166
e 15 17
e 15 19
e 15 25
e 15 67
e 15 71
e 15 99
e 15 106
e 15 120
e 15 125
e 15 148
e 15 160
e 15 176
e 15 184
e 16 30
e 16 48
e 16 51
e 16 53
e 16 60
e 16 61
e 16 62
e 16 72
e 16 74
e 16 77
e 16 87
e 16 89
e 16 111
e 16 116
e 16 123
e 16 146
e 16 157
e 16 159
e 16 174
e 16 178
e 17 19
e 17 36
e 17 50
e 17 55
e 17 57
e 17 58
e 17 62
e 17 67
e 17 71
e 17 99
e 17 102
e 17 107
e 17 115
e 17 120
e 17 122
e 17 148
e 17 151
e 17 160
e 18 20
e 18 22
e 18 27
e 18 35
e 18 38
e 18 39
e 18 64
e 18 79
e 18 83
e 18 111
e 18 119
e 18 121
e 18 122
e 18 125
e 18 143
e 18 162
e 18 171
e 18 180
e 19 43
e 19 67
e 19 71
e 19 85
e 19 91
e 19 99
e 19 117
e 19 120
e 19 148
e 19 160
e 19 170
e 19 183
e 19 185
e 20 22
e 20 44
e 20 50
e 20 64
e 20 83
e 20 86
e 20 108
e 20 119
e 20 121
e 20 143
e 20 162
e 20 171
e 20 175
e 20 180
e 21 25
e 21 28
e 21 31
e 21 35
e 21 46
e 21 47
e 21 68
e 21 71
e 21 76
e 21 81
e 21 87
e 21 100
e 21 127
e 21 146
e 21 153
e 21 155
e 21 167
e 21 169
e 22 30
e 22 63
e 22 64
e 22 83
e 22 91
e 22 98
e 22 119
e 22 121
e 22 133
e 22 142
e 22 143
e 22 145
e 22 152
e 22 153
e 22 162
e 22 171
e 22 180
e 23 44
e 23 69
e 23 78
e 23 81
e 23 84
e 23 89
e 23 90
e 23 107
e 23 147
e 23 156
e 23 164
e 23 166
e 23 180
e 23 182
e 23 183
e 24 34
e 24 38
e 24 56
e 24 60
e 24 69
e 24 74
e 24 80
e 24 94
e 24 96
e 24 112
e 24 113
e 24 117
e 24 120
e 24 131
e 24 139
e 24 142
e 24 158
e 24 168
e 24 171
e 24 184
e 25 46
e 25 47
e 25 68
e 25 76
e 25 87
e 25 106
e 25 125
e 25 155
e 25 176
e 25 184
e 26 28
e 26 43
e 26 48
e 26 49
e 26 54
e 26 55
e 26 65
e 26 67
e 26 73
e 26 76
e 26 86
e 26 95
e 26 110
e 26 140
e 26 144
e 26 156
e 26 158
e 26 162
e 26 173
e 26 176
e 26 179
e 26 181
e 27 29
e 27 35
e 27 38
e 27 39
e 27 42
e 27 54
e 27 79
e 27 80
e 27 90
e 27 97
e 27 104
e 27 111
e 27 114
e 27 122
e 27 125
e 27 130
e 28 31
e 28 35
e 28 43
e 28 54
e 28 55
e 28 71
e 28 81
e 28 95
e 28 100
e 28 110
e 28 127
e 28 146
e 28 153
e 28 158
e 28 162
e 28 167
e 28 169
e 28 176
e 28 179
e 29 42
e 29 54
e 29 80
e 29 90
e 29 97
e 29 104
e 29 106
e 29 114
e 29 130
e 29 151
e 29 157
e 29 163
e 29 168
e 29 181
e 30 53
e 30 60
e 30 61
e 30 63
e 30 72
e 30 77
e 30 87
e 30 89
e 30 91
e 30 98
e 30 111
e 30 133
e 30 142
e 30 145
e 30 152
e 30 153
e 30 157
e 30 159
e 31 35
e 31 41
e 31 42
e 31 45
e 31 56
e 31 64
e 31 65
e 31 71
e 31 81
e 31 82
e 31 100
e 31 115
e 31 118
e 31 127
e 31 146
e 31 153
e 31 167
e 31 169
e 31 170
e 32 52
e 32 72
e 32 93
e 32 105
e 32 108
e 32 109
e 32 110
e 32 118
e 32 119
e 32 124
e 32 144
e 32 145
e 32 150
e 32 155
e 32 161
e 32 177
e 33 37
e 33 39
e 33 41
e 33 47
e 33 77
e 33 88
e 33 92
e 33 101
e 33 102
e 33 103
e 33 105
e 33 112
e 33 116
e 33 130
e 33 132
e 33 141
e 33 150
e 33 169
e 33 182
e 34 38
e 34 56
e 34 58
e 34 69
e 34 74
e 34 96
e 34 104
e 34 112
e 34 113
e 34 120
e 34 121
e 34 132
e 34 142
e 34 158
e 34 159
e 34 168
e 34 177
e 34 185
e 35 38
e 35 39
e 35 71
e 35 79
e 35 81
e 35 100
e 35 111
e 35 122
e 35 125
e 35 127
e 35 146
e 35 153
e 35 167
e 35 169
e 36 50
e 36 52
e 36 53
e 36 55
e 36 57
e 36 58
e 36 62
e 36 70
e 36 92
e 36 100
e 36 102
e 36 107
e 36 115
e 36 122
e 36 129
e 36 136
e 36 137
e 36 138
e 36 147
e 36 151
e 36 173
e 37 46
e 37 59
e 37 75
e 37 77
e 37 84
e 37 88
e 37 101
e 37 102
e 37 105
e 37 112
e 37 129
e 37 130
e 37 133
e 37 163
e 37 169
e 37 174
e 37 179
e 37 182
e 38 39
e 38 56
e 38 69
e 38 74
e 38 79
e 38 96
e 38 111
e 38 112
e 38 113
e 38 120
e 38 122
e 38 125
e 38 142
e 38 158
e 38 168
e 39 41
e 39 47
e 39 79
e 39 92
e 39 103
e 39 111
e 39 116
e 39 122
e 39 125
e 39 132
e 39 141
e 39 150
e 40 49
e 40 59
e 40 78
e 40 85
e 40 93
e 40 96
e 40 114
e 40 126
e 40 134
e 40 135
e 40 141
e 40 143
e 40 148
e 40 149
e 40 167
e 41 42
e 41 45
e 41 47
e 41 56
e 41 64
e 41 65
e 41 82
e 41 92
e 41 103
e 41 115
e 41 116
e 41 118
e 41 132
e 41 141
e 41 150
e 41 170
e 42 45
e 42 54
e 42 56
e 42 64
e 42 65
e 42 80
e 42 82
e 42 90
e 42 97
e 42 104
e 42 114
e 42 115
e 42 118
e 42 130
e 42 170
e 43 54
e 43 55
e 43 85
e 43 91
e 43 95
e 43 110
e 43 117
e 43 158
e 43 162
e 43 170
e 43 176
e 43 179
e 43 183
e 43 185
e 44 50
e 44 86
e 44 108
e 44 147
e 44 175
e 44 182
e 45 56
e 45 64
e 45 65
e 45 82
e 45 88
e 45 115
e 45 118
e 45 123
e 45 126
e 45 131
e 45 138
e 45 154
e 45 160
e 45 164
e 45 170
e 45 172
e 46 47
e 46 59
e 46 68
e 46 75
e 46 76
e 46 84
e 46 87
e 46 129
e 46 133
e 46 155
e 46 163
e 46 174
e 46 179
e 47 68
e 47 76
e 47 87
e 47 92
e 47 103
e 47 116
e 47 132
e 47 141
e 47 150
e 47 155
e 48 49
e 48 51
e 48 62
e 48 65
e 48 67
e 48 73
e 48 74
e 48 76
e 48 86
e 48 116
e 48 123
e 48 140
e 48 144
e 48 146
e 48 156
e 48 173
e 48 174
e 48 178
e 48 181
e 49 59
e 49 65
e 49 67
e 49 73
e 49 76
e 49 85
e 49 86
e 49 96
e 49 114
e 49 126
e 49 134
e 49 135
e 49 140
e 49 141
e 49 143
e 49 144
e 49 156
e 49 167
e 49 173
e 49 181
e 50 55
e 50 57
e 50 58
e 50 62
e 50 86
e 50 102
e 50 107
e 50 108
e 50 115
e 50 122
e 50 151
e 50 175
e 51 62
e 51 63
e 51 74
e 51 79
e 51 99
e 51 101
e 51 116
e 51 123
e 51 128
e 51 134
e 51 136
e 51 139
e 51 146
e 51 161
e 51 174
e 51 175
e 51 178
e 52 53
e 52 70
e 52 92
e 52 100
e 52 105
e 52 108
e 52 109
e 52 110
e 52 118
e 52 129
e 52 136
e 52 137
e 52 138
e 52 145
e 52 147
e 52 155
e 52 173
e 52 177
e 53 60
e 53 61
e 53 70
e 53 72
e 53 77
e 53 87
e 53 89
e 53 92
e 53 100
e 53 111
e 53 129
e 53 136
e 53 137
e 53 138
e 53 147
e 53 157
e 53 159
e 53 173
e 54 55
e 54 80
e 54 90
e 54 95
e 54 97
e 54 104
e 54 110
e 54 114
e 54 130
e 54 158
e 54 162
e 54 176
e 54 179
e 55 57
e 55 58
e 55 62
e 55 95
e 55 102
e 55 107
e 55 110
e 55 115
e 55 122
e 55 151
e 55 158
e 55 162
e 55 176
e 55 179
e 56 64
e 56 65
e 56 69
e 56 74
e 56 82
e 56 96
e 56 112
e 56 113
e 56 115
e 56 118
e 56 120
e 56 142
e 56 158
e 56 168
e 56 170
e 57 58
e 57 61
e 57 62
e 57 73
e 57 75
e 57 97
e 57 102
e 57 103
e 57 107
e 57 109
e 57 113
e 57 115
e 57 122
e 57 128
e 57 151
e 57 154
e 57 165
e 58 62
e 58 102
e 58 104
e 58 107
e 58 115
e 58 121
e 58 122
e 58 132
e 58 151
e 58 159
e 58 177
e 58 185
e 59 75
e 59 84
e 59 85
e 59 96
e 59 114
e 59 126
e 59 129
e 59 133
e 59 134
e 59 135
e 59 141
e 59 143
e 59 163
e 59 167
e 59 174
e 59 179
e 60 61
e 60 72
e 60 77
e 60 80
e 60 87
e 60 89
e 60 94
e 60 111
e 60 117
e 60 131
e 60 139
e 60 157
e 60 159
e 60 171
e 60 184
e 61 72
e 61 73
e 61 75
e 61 77
e 61 87
e 61 89
e 61 97
e 61 103
e 61 109
e 61 111
e 61 113
e 61 128
e 61 154
e 61 157
e 61 159
e 61 165
e 62 74
e 62 102
e 62 107
e 62 115
e 62 116
e 62 122
e 62 123
e 62 146
e 62 151
e 62 174
e 62 178
e 63 79
e 63 91
e 63 98
e 63 99
e 63 101
e 63 128
e 63 133
e 63 134
e 63 136
e 63 139
e 63 142
e 63 145
e 63 152
e 63 153
e 63 161
e 63 175
e 64 65
e 64 82
e 64 83
e 64 115
e 64 118
e 64 119
e 64 121
e 64 143
e 64 162
e 64 170
e 64 171
e 64 180
e 65 67
e 65 73
e 65 76
e 65 82
e 65 86
e 65 115
e 65 118
e 65 140
e 65 144
e 65 156
e 65 170
e 65 173
e 65 181
e 66 82
e 66 83
e 66 94
e 66 98
e 66 124
e 66 127
e 66 137
e 66 140
e 66 149
e 66 172
e 66 178
e 67 71
e 67 73
e 67 76
e 67 86
e 67 99
e 67 120
e 67 140
e 67 144
e 67 148
e 67 156
e 67 160
e 67 173
e 67 181
e 68 70
e 68 76
e 68 87
e 68 95
e 68 135
e 68 152
e 68 155
e 68 165
e 68 166
e 69 74
e 69 78
e 69 81
e 69 84
e 69 89
e 69 90
e 69 96
e 69 107
e 69 112
e 69 113
e 69 120
e 69 142
e 69 156
e 69 158
e 69 164
e 69 166
e 69 168
e 69 180
e 69 183
e 70 92
e 70 95
e 70 100
e 70 129
e 70 135
e 70 136
e 70 137
e 70 138
e 70 147
e 70 152
e 70 165
e 70 166
e 70 173
e 71 81
e 71 99
e 71 100
e 71 120
e 71 127
e 71 146
e 71 148
e 71 153
e 71 160
e 71 167
e 71 169
e 72 77
e 72 87
e 72 89
e 72 93
e 72 111
e 72 119
e 72 124
e 72 144
e 72 150
e 72 157
e 72 159
e 72 161
e 73 75
e 73 76
e 73 86
e 73 97
e 73 103
e 73 109
e 73 113
e 73 128
e 73 140
e 73 144
e 73 154
e 73 156
e 73 165
e 73 173
e 73 181
e 74 96
e 74 112
e 74 113
e 74 116
e 74 120
e 74 123
e 74 142
e 74 146
e 74 158
e 74 168
e 74 174
e 74 178
e 75 84
e 75 97
e 75 103
e 75 109
e 75 113
e 75 128
e 75 129
e 75 133
e 75 154
e 75 163
e 75 165
e 75 174
e 75 179
e 76 86
e 76 87
e 76 140
e 76 144
e 76 155
e 76 156
e 76 173
e 76 181
e 77 87
e 77 88
e 77 89
e 77 101
e 77 102
e 77 105
e 77 111
e 77 112
e 77 130
e 77 157
e 77 159
e 77 169
e 77 182
e 78 81
e 78 84
e 78 89
e 78 90
e 78 93
e 78 107
e 78 148
e 78 149
e 78 156
e 78 164
e 78 166
e 78 180
e 78 183
e 79 99
e 79 101
e 79 111
e 79 122
e 79 125
e 79 128
e 79 134
e 79 136
e 79 139
e 79 161
e 79 175
e 80 90
e 80 94
e 80 97
e 80 104
e 80 114
e 80 117
e 80 130
e 80 131
e 80 139
e 80 171
e 80 184
e 81 84
e 81 89
e 81 90
e 81 100
e 81 107
e 81 127
e 81 146
e 81 153
e 81 156
e 81 164
e 81 166
e 81 167
e 81 169
e 81 180
e 81 183
e 82 94
e 82 98
e 82 115
e 82 118
e 82 124
e 82 137
e 82 170
e 82 178
e 83 119
e 83 121
e 83 127
e 83 140
e 83 143
e 83 149
e 83 162
e 83 171
e 83 172
e 83 180
e 84 89
e 84 90
e 84 107
e 84 129
e 84 133
e 84 156
e 84 163
e 84 164
e 84 166
e 84 174
e 84 179
e 84 180
e 84 183
e 85 91
e 85 96
e 85 114
e 85 117
e 85 126
e 85 134
e 85 135
e 85 141
e 85 143
e 85 167
e 85 170
e 85 183
e 85 185
e 86 108
e 86 140
e 86 144
e 86 156
e 86 173
e 86 175
e 86 181
e 87 89
e 87 111
e 87 155
e 87 157
e 87 159
e 88 101
e 88 102
e 88 105
e 88 112
e 88 123
e 88 126
e 88 130
e 88 131
e 88 138
e 88 154
e 88 160
e 88 164
e 88 169
e 88 172
e 88 182
e 89 90
e 89 107
e 89 111
e 89 156
e 89 157
e 89 159
e 89 164
e 89 166
e 89 180
e 89 183
e 90 97
e 90 104
e 90 107
e 90 114
e 90 130
e 90 156
e 90 164
e 90 166
e 90 180
e 90 183
e 91 98
e 91 117
e 91 133
e 91 142
e 91 145
e 91 152
e 91 153
e 91 170
e 91 183
e 91 185
e 92 100
e 92 103
e 92 116
e 92 129
e 92 132
e 92 136
e 92 137
e 92 138
e 92 141
e 92 147
e 92 150
e 92 173
e 93 119
e 93 124
e 93 144
e 93 148
e 93 149
e 93 150
e 93 161
e 94 98
e 94 117
e 94 124
e 94 131
e 94 137
e 94 139
e 94 171
e 94 178
e 94 184
e 95 110
e 95 135
e 95 152
e 95 158
e 95 162
e 95 165
e 95 166
e 95 176
e 95 179
e 96 112
e 96 113
e 96 114
e 96 120
e 96 126
e 96 134
e 96 135
e 96 141
e 96 142
e 96 143
e 96 158
e 96 167
e 96 168
e 97 103
e 97 104
e 97 109
e 97 113
e 97 114
e 97 128
e 97 130
e 97 154
e 97 165
e 98 124
e 98 133
e 98 137
e 98 142
e 98 145
e 98 152
e 98 153
e 98 178
e 99 101
e 99 120
e 99 128
e 99 134
e 99 136
e 99 139
e 99 148
e 99 160
e 99 161
e 99 175
e 100 127
e 100 129
e 100 136
e 100 137
e 100 138
e 100 146
e 100 147
e 100 153
e 100 167
e 100 169
e 100 173
e 101 102
e 101 105
e 101 112
e 101 128
e 101 130
e 101 134
e 101 136
e 101 139
e 101 161
e 101 169
e 101 175
e 101 182
e 102 105
e 102 107
e 102 112
e 102 115
e 102 122
e 102 130
e 102 151
e 102 169
e 102 182
e 103 109
e 103 113
e 103 116
e 103 128
e 103 132
e 103 141
e 103 150
e 103 154
e 103 165
e 104 114
e 104 121
e 104 130
e 104 132
e 104 159
e 104 177
e 104 185
e 105 108
e 105 109
e 105 110
e 105 112
e 105 118
e 105 130
e 105 145
e 105 155
e 105 169
e 105 177
e 105 182
e 106 125
e 106 151
e 106 157
e 106 163
e 106 168
e 106 176
e 106 181
e 106 184
e 107 115
e 107 122
e 107 151
e 107 156
e 107 164
e 107 166
e 107 180
e 107 183
e 108 109
e 108 110
e 108 118
e 108 145
e 108 155
e 108 175
e 108 177
e 109 110
e 109 113
e 109 118
e 109 128
e 109 145
e 109 154
e 109 155
e 109 165
e 109 177
e 110 118
e 110 145
e 110 155
e 110 158
e 110 162
e 110 176
e 110 177
e 110 179
e 111 122
e 111 125
e 111 157
e 111 159
e 112 113
e 112 120
e 112 130
e 112 142
e 112 158
e 112 168
e 112 169
e 112 182
e 113 120
e 113 128
e 113 142
e 113 154
e 113 158
e 113 165
e 113 168
e 114 126
e 114 130
e 114 134
e 114 135
e 114 141
e 114 143
e 114 167
e 115 118
e 115 122
e 115 151
e 115 170
e 116 123
e 116 132
e 116 141
e 116 146
e 116 150
e 116 174
e 116 178
e 117 131
e 117 139
e 117 170
e 117 171
e 117 183
e 117 184
e 117 185
e 118 145
e 118 155
e 118 170
e 118 177
e 119 121
e 119 124
e 119 143
e 119 144
e 119 150
e 119 161
e 119 162
e 119 171
e 119 180
e 120 142
e 120 148
e 120 158
e 120 160
e 120 168
e 121 132
e 121 143
e 121 159
e 121 162
e 121 171
e 121 177
e 121 180
e 121 185
e 122 125
e 122 151
e 123 126
e 123 131
e 123 138
e 123 146
e 123 154
e 123 160
e 123 164
e 123 172
e 123 174
e 123 178
e 124 137
e 124 144
e 124 150
e 124 161
e 124 178
e 125 176
e 125 184
e 126 131
e 126 134
e 126 135
e 126 138
e 126 141
e 126 143
e 126 154
e 126 160
e 126 164
e 126 167
e 126 172
e 127 140
e 127 146
e 127 149
e 127 153
e 127 167
e 127 169
e 127 172
e 128 134
e 128 136
e 128 139
e 128 154
e 128 161
e 128 165
e 128 175
e 129 133
e 129 136
e 129 137
e 129 138
e 129 147
e 129 163
e 129 173
e 129 174
e 129 179
e 130 169
e 130 182
e 131 138
e 131 139
e 131 154
e 131 160
e 131 164
e 131 171
e 131 172
e 131 184
e 132 141
e 132 150
e 132 159
e 132 177
e 132 185
e 133 142
e 133 145
e 133 152
e 133 153
e 133 163
e 133 174
e 133 179
e 134 135
e 134 136
e 134 139
e 134 141
e 134 143
e 134 161
e 134 167
e 134 175
e 135 141
e 135 143
e 135 152
e 135 165
e 135 166
e 135 167
e 136 137
e 136 138
e 136 139
e 136 147
e 136 161
e 136 173
e 136 175
e 137 138
e 137 147
e 137 173
e 137 178
e 138 147
e 138 154
e 138 160
e 138 164
e 138 172
e 138 173
e 139 161
e 139 171
e 139 175
e 139 184
e 140 144
e 140 149
e 140 156
e 140 172
e 140 173
e 140 181
e 141 143
e 141 150
e 141 167
e 142 145
e 142 152
e 142 153
e 142 158
e 142 168
e 143 162
e 143 167
e 143 171
e 143 180
e 144 150
e 144 156
e 144 161
e 144 173
e 144 181
e 145 152
e 145 153
e 145 155
e 145 177
e 146 153
e 146 167
e 146 169
e 146 174
e 146 178
e 147 173
e 147 182
e 148 149
e 148 160
e 149 172
e 150 161
e 151 157
e 151 163
e 151 168
e 151 181
e 152 153
e 152 165
e 152 166
e 153 167
e 153 169
e 154 160
e 154 164
e 154 165
e 154 172
e 155 177
e 156 164
e 156 166
e 156 173
e 156 180
e 156 181
e 156 183
e 157 159
e 157 163
e 157 168
e 157 181
e 158 162
e 158 168
e 158 176
e 158 179
e 159 177
e 159 185
e 160 164
e 160 172
e 161 175
e 162 171
e 162 176
e 162 179
e 162 180
e 163 168
e 163 174
e 163 179
e 163 181
e 164 166
e 164 172
e 164 180
e 164 183
e 165 166
e 166 180
e 166 183
e 167 169
e 168 181
e 169 182
e 170 183
e 170 185
e 171 180
e 171 184
e 173 181
e 174 178
e 174 179
e 176 179
e 176 184
e 177 185
e 180 183
e 183 185
